Multisets-experiment/model.mps
* Signature: 0x4db53b27faa6bf98
NAME Multiset_Divisibility_OddDBeta
ROWS
 N  OBJ
 E  TotalSize
 E  Divisible_beta_1
 E  Divisible_beta_2
 E  Divisible_beta_3
 E  Divisible_beta_4
 E  Divisible_beta_5
 E  Divisible_beta_6
 E  Divisible_beta_7
 E  Divisible_beta_8
 E  Divisible_beta_9
 E  Divisible_beta_10
 E  Divisible_beta_11
 E  Divisible_beta_12
 E  Divisible_beta_13
 E  Divisible_beta_14
 E  Divisible_beta_15
 L  Upper_mu_0
 L  Upper_mu_1
 L  Upper_mu_2
 L  Upper_mu_3
 L  Upper_mu_4
 L  Upper_mu_5
 L  Upper_mu_6
 L  Upper_mu_7
 L  Upper_mu_8
 L  Upper_mu_9
 L  Upper_mu_10
 L  Upper_mu_11
 L  Upper_mu_12
 L  Upper_mu_13
 L  Upper_mu_14
 L  Upper_mu_15
COLUMNS
    MARKER    'MARKER'                 'INTORG'
    mu[0]     TotalSize  1
    mu[0]     Divisible_beta_1  1
    mu[0]     Divisible_beta_2  1
    mu[0]     Divisible_beta_3  1
    mu[0]     Divisible_beta_4  1
    mu[0]     Divisible_beta_5  1
    mu[0]     Divisible_beta_6  1
    mu[0]     Divisible_beta_7  1
    mu[0]     Divisible_beta_8  1
    mu[0]     Divisible_beta_9  1
    mu[0]     Divisible_beta_10  1
    mu[0]     Divisible_beta_11  1
    mu[0]     Divisible_beta_12  1
    mu[0]     Divisible_beta_13  1
    mu[0]     Divisible_beta_14  1
    mu[0]     Divisible_beta_15  1
    mu[0]     Upper_mu_0  1
    mu[1]     TotalSize  1
    mu[1]     Divisible_beta_1  -1
    mu[1]     Divisible_beta_2  1
    mu[1]     Divisible_beta_3  -1
    mu[1]     Divisible_beta_4  1
    mu[1]     Divisible_beta_5  -1
    mu[1]     Divisible_beta_6  1
    mu[1]     Divisible_beta_7  -1
    mu[1]     Divisible_beta_8  1
    mu[1]     Divisible_beta_9  -1
    mu[1]     Divisible_beta_10  1
    mu[1]     Divisible_beta_11  -1
    mu[1]     Divisible_beta_12  1
    mu[1]     Divisible_beta_13  -1
    mu[1]     Divisible_beta_14  1
    mu[1]     Divisible_beta_15  -1
    mu[1]     Upper_mu_1  1
    mu[2]     TotalSize  1
    mu[2]     Divisible_beta_1  1
    mu[2]     Divisible_beta_2  -1
    mu[2]     Divisible_beta_3  -1
    mu[2]     Divisible_beta_4  1
    mu[2]     Divisible_beta_5  1
    mu[2]     Divisible_beta_6  -1
    mu[2]     Divisible_beta_7  -1
    mu[2]     Divisible_beta_8  1
    mu[2]     Divisible_beta_9  1
    mu[2]     Divisible_beta_10  -1
    mu[2]     Divisible_beta_11  -1
    mu[2]     Divisible_beta_12  1
    mu[2]     Divisible_beta_13  1
    mu[2]     Divisible_beta_14  -1
    mu[2]     Divisible_beta_15  -1
    mu[2]     Upper_mu_2  1
    mu[3]     TotalSize  1
    mu[3]     Divisible_beta_1  -1
    mu[3]     Divisible_beta_2  -1
    mu[3]     Divisible_beta_3  1
    mu[3]     Divisible_beta_4  1
    mu[3]     Divisible_beta_5  -1
    mu[3]     Divisible_beta_6  -1
    mu[3]     Divisible_beta_7  1
    mu[3]     Divisible_beta_8  1
    mu[3]     Divisible_beta_9  -1
    mu[3]     Divisible_beta_10  -1
    mu[3]     Divisible_beta_11  1
    mu[3]     Divisible_beta_12  1
    mu[3]     Divisible_beta_13  -1
    mu[3]     Divisible_beta_14  -1
    mu[3]     Divisible_beta_15  1
    mu[3]     Upper_mu_3  1
    mu[4]     TotalSize  1
    mu[4]     Divisible_beta_1  1
    mu[4]     Divisible_beta_2  1
    mu[4]     Divisible_beta_3  1
    mu[4]     Divisible_beta_4  -1
    mu[4]     Divisible_beta_5  -1
    mu[4]     Divisible_beta_6  -1
    mu[4]     Divisible_beta_7  -1
    mu[4]     Divisible_beta_8  1
    mu[4]     Divisible_beta_9  1
    mu[4]     Divisible_beta_10  1
    mu[4]     Divisible_beta_11  1
    mu[4]     Divisible_beta_12  -1
    mu[4]     Divisible_beta_13  -1
    mu[4]     Divisible_beta_14  -1
    mu[4]     Divisible_beta_15  -1
    mu[4]     Upper_mu_4  1
    mu[5]     TotalSize  1
    mu[5]     Divisible_beta_1  -1
    mu[5]     Divisible_beta_2  1
    mu[5]     Divisible_beta_3  -1
    mu[5]     Divisible_beta_4  -1
    mu[5]     Divisible_beta_5  1
    mu[5]     Divisible_beta_6  -1
    mu[5]     Divisible_beta_7  1
    mu[5]     Divisible_beta_8  1
    mu[5]     Divisible_beta_9  -1
    mu[5]     Divisible_beta_10  1
    mu[5]     Divisible_beta_11  -1
    mu[5]     Divisible_beta_12  -1
    mu[5]     Divisible_beta_13  1
    mu[5]     Divisible_beta_14  -1
    mu[5]     Divisible_beta_15  1
    mu[5]     Upper_mu_5  1
    mu[6]     TotalSize  1
    mu[6]     Divisible_beta_1  1
    mu[6]     Divisible_beta_2  -1
    mu[6]     Divisible_beta_3  -1
    mu[6]     Divisible_beta_4  -1
    mu[6]     Divisible_beta_5  -1
    mu[6]     Divisible_beta_6  1
    mu[6]     Divisible_beta_7  1
    mu[6]     Divisible_beta_8  1
    mu[6]     Divisible_beta_9  1
    mu[6]     Divisible_beta_10  -1
    mu[6]     Divisible_beta_11  -1
    mu[6]     Divisible_beta_12  -1
    mu[6]     Divisible_beta_13  -1
    mu[6]     Divisible_beta_14  1
    mu[6]     Divisible_beta_15  1
    mu[6]     Upper_mu_6  1
    mu[7]     TotalSize  1
    mu[7]     Divisible_beta_1  -1
    mu[7]     Divisible_beta_2  -1
    mu[7]     Divisible_beta_3  1
    mu[7]     Divisible_beta_4  -1
    mu[7]     Divisible_beta_5  1
    mu[7]     Divisible_beta_6  1
    mu[7]     Divisible_beta_7  -1
    mu[7]     Divisible_beta_8  1
    mu[7]     Divisible_beta_9  -1
    mu[7]     Divisible_beta_10  -1
    mu[7]     Divisible_beta_11  1
    mu[7]     Divisible_beta_12  -1
    mu[7]     Divisible_beta_13  1
    mu[7]     Divisible_beta_14  1
    mu[7]     Divisible_beta_15  -1
    mu[7]     Upper_mu_7  1
    mu[8]     TotalSize  1
    mu[8]     Divisible_beta_1  1
    mu[8]     Divisible_beta_2  1
    mu[8]     Divisible_beta_3  1
    mu[8]     Divisible_beta_4  1
    mu[8]     Divisible_beta_5  1
    mu[8]     Divisible_beta_6  1
    mu[8]     Divisible_beta_7  1
    mu[8]     Divisible_beta_8  -1
    mu[8]     Divisible_beta_9  -1
    mu[8]     Divisible_beta_10  -1
    mu[8]     Divisible_beta_11  -1
    mu[8]     Divisible_beta_12  -1
    mu[8]     Divisible_beta_13  -1
    mu[8]     Divisible_beta_14  -1
    mu[8]     Divisible_beta_15  -1
    mu[8]     Upper_mu_8  1
    mu[9]     TotalSize  1
    mu[9]     Divisible_beta_1  -1
    mu[9]     Divisible_beta_2  1
    mu[9]     Divisible_beta_3  -1
    mu[9]     Divisible_beta_4  1
    mu[9]     Divisible_beta_5  -1
    mu[9]     Divisible_beta_6  1
    mu[9]     Divisible_beta_7  -1
    mu[9]     Divisible_beta_8  -1
    mu[9]     Divisible_beta_9  1
    mu[9]     Divisible_beta_10  -1
    mu[9]     Divisible_beta_11  1
    mu[9]     Divisible_beta_12  -1
    mu[9]     Divisible_beta_13  1
    mu[9]     Divisible_beta_14  -1
    mu[9]     Divisible_beta_15  1
    mu[9]     Upper_mu_9  1
    mu[10]    TotalSize  1
    mu[10]    Divisible_beta_1  1
    mu[10]    Divisible_beta_2  -1
    mu[10]    Divisible_beta_3  -1
    mu[10]    Divisible_beta_4  1
    mu[10]    Divisible_beta_5  1
    mu[10]    Divisible_beta_6  -1
    mu[10]    Divisible_beta_7  -1
    mu[10]    Divisible_beta_8  -1
    mu[10]    Divisible_beta_9  -1
    mu[10]    Divisible_beta_10  1
    mu[10]    Divisible_beta_11  1
    mu[10]    Divisible_beta_12  -1
    mu[10]    Divisible_beta_13  -1
    mu[10]    Divisible_beta_14  1
    mu[10]    Divisible_beta_15  1
    mu[10]    Upper_mu_10  1
    mu[11]    TotalSize  1
    mu[11]    Divisible_beta_1  -1
    mu[11]    Divisible_beta_2  -1
    mu[11]    Divisible_beta_3  1
    mu[11]    Divisible_beta_4  1
    mu[11]    Divisible_beta_5  -1
    mu[11]    Divisible_beta_6  -1
    mu[11]    Divisible_beta_7  1
    mu[11]    Divisible_beta_8  -1
    mu[11]    Divisible_beta_9  1
    mu[11]    Divisible_beta_10  1
    mu[11]    Divisible_beta_11  -1
    mu[11]    Divisible_beta_12  -1
    mu[11]    Divisible_beta_13  1
    mu[11]    Divisible_beta_14  1
    mu[11]    Divisible_beta_15  -1
    mu[11]    Upper_mu_11  1
    mu[12]    TotalSize  1
    mu[12]    Divisible_beta_1  1
    mu[12]    Divisible_beta_2  1
    mu[12]    Divisible_beta_3  1
    mu[12]    Divisible_beta_4  -1
    mu[12]    Divisible_beta_5  -1
    mu[12]    Divisible_beta_6  -1
    mu[12]    Divisible_beta_7  -1
    mu[12]    Divisible_beta_8  -1
    mu[12]    Divisible_beta_9  -1
    mu[12]    Divisible_beta_10  -1
    mu[12]    Divisible_beta_11  -1
    mu[12]    Divisible_beta_12  1
    mu[12]    Divisible_beta_13  1
    mu[12]    Divisible_beta_14  1
    mu[12]    Divisible_beta_15  1
    mu[12]    Upper_mu_12  1
    mu[13]    TotalSize  1
    mu[13]    Divisible_beta_1  -1
    mu[13]    Divisible_beta_2  1
    mu[13]    Divisible_beta_3  -1
    mu[13]    Divisible_beta_4  -1
    mu[13]    Divisible_beta_5  1
    mu[13]    Divisible_beta_6  -1
    mu[13]    Divisible_beta_7  1
    mu[13]    Divisible_beta_8  -1
    mu[13]    Divisible_beta_9  1
    mu[13]    Divisible_beta_10  -1
    mu[13]    Divisible_beta_11  1
    mu[13]    Divisible_beta_12  1
    mu[13]    Divisible_beta_13  -1
    mu[13]    Divisible_beta_14  1
    mu[13]    Divisible_beta_15  -1
    mu[13]    Upper_mu_13  1
    mu[14]    TotalSize  1
    mu[14]    Divisible_beta_1  1
    mu[14]    Divisible_beta_2  -1
    mu[14]    Divisible_beta_3  -1
    mu[14]    Divisible_beta_4  -1
    mu[14]    Divisible_beta_5  -1
    mu[14]    Divisible_beta_6  1
    mu[14]    Divisible_beta_7  1
    mu[14]    Divisible_beta_8  -1
    mu[14]    Divisible_beta_9  -1
    mu[14]    Divisible_beta_10  1
    mu[14]    Divisible_beta_11  1
    mu[14]    Divisible_beta_12  1
    mu[14]    Divisible_beta_13  1
    mu[14]    Divisible_beta_14  -1
    mu[14]    Divisible_beta_15  -1
    mu[14]    Upper_mu_14  1
    mu[15]    TotalSize  1
    mu[15]    Divisible_beta_1  -1
    mu[15]    Divisible_beta_2  -1
    mu[15]    Divisible_beta_3  1
    mu[15]    Divisible_beta_4  -1
    mu[15]    Divisible_beta_5  1
    mu[15]    Divisible_beta_6  1
    mu[15]    Divisible_beta_7  -1
    mu[15]    Divisible_beta_8  -1
    mu[15]    Divisible_beta_9  1
    mu[15]    Divisible_beta_10  1
    mu[15]    Divisible_beta_11  -1
    mu[15]    Divisible_beta_12  1
    mu[15]    Divisible_beta_13  -1
    mu[15]    Divisible_beta_14  -1
    mu[15]    Divisible_beta_15  1
    mu[15]    Upper_mu_15  1
    d[1]      Divisible_beta_1  -32
    d[2]      Divisible_beta_2  -32
    d[3]      Divisible_beta_3  -32
    d[4]      Divisible_beta_4  -32
    d[5]      Divisible_beta_5  -32
    d[6]      Divisible_beta_6  -32
    d[7]      Divisible_beta_7  -32
    d[8]      Divisible_beta_8  -32
    d[9]      Divisible_beta_9  -32
    d[10]     Divisible_beta_10  -32
    d[11]     Divisible_beta_11  -32
    d[12]     Divisible_beta_12  -32
    d[13]     Divisible_beta_13  -32
    d[14]     Divisible_beta_14  -32
    d[15]     Divisible_beta_15  -32
    T         OBJ       0
    MARKER    'MARKER'                 'INTEND'
RHS
    RHS1      TotalSize  32
    RHS1      Divisible_beta_1  16
    RHS1      Divisible_beta_2  16
    RHS1      Divisible_beta_3  16
    RHS1      Divisible_beta_4  16
    RHS1      Divisible_beta_5  16
    RHS1      Divisible_beta_6  16
    RHS1      Divisible_beta_7  16
    RHS1      Divisible_beta_8  16
    RHS1      Divisible_beta_9  16
    RHS1      Divisible_beta_10  16
    RHS1      Divisible_beta_11  16
    RHS1      Divisible_beta_12  16
    RHS1      Divisible_beta_13  16
    RHS1      Divisible_beta_14  16
    RHS1      Divisible_beta_15  16
    RHS1      Upper_mu_0  4
    RHS1      Upper_mu_1  4
    RHS1      Upper_mu_2  4
    RHS1      Upper_mu_3  4
    RHS1      Upper_mu_4  4
    RHS1      Upper_mu_5  4
    RHS1      Upper_mu_6  4
    RHS1      Upper_mu_7  4
    RHS1      Upper_mu_8  4
    RHS1      Upper_mu_9  4
    RHS1      Upper_mu_10  4
    RHS1      Upper_mu_11  4
    RHS1      Upper_mu_12  4
    RHS1      Upper_mu_13  4
    RHS1      Upper_mu_14  4
    RHS1      Upper_mu_15  4
BOUNDS
 LI BND1      mu[0]     0
 LI BND1      mu[1]     0
 LI BND1      mu[2]     0
 LI BND1      mu[3]     0
 LI BND1      mu[4]     0
 LI BND1      mu[5]     0
 LI BND1      mu[6]     0
 LI BND1      mu[7]     0
 LI BND1      mu[8]     0
 LI BND1      mu[9]     0
 LI BND1      mu[10]    0
 LI BND1      mu[11]    0
 LI BND1      mu[12]    0
 LI BND1      mu[13]    0
 LI BND1      mu[14]    0
 LI BND1      mu[15]    0
 LI BND1      d[1]      0
 LI BND1      d[2]      0
 LI BND1      d[3]      0
 LI BND1      d[4]      0
 LI BND1      d[5]      0
 LI BND1      d[6]      0
 LI BND1      d[7]      0
 LI BND1      d[8]      0
 LI BND1      d[9]      0
 LI BND1      d[10]     0
 LI BND1      d[11]     0
 LI BND1      d[12]     0
 LI BND1      d[13]     0
 LI BND1      d[14]     0
 LI BND1      d[15]     0
 LI BND1      T         0
ENDATA
